\ Model _copy
\ LP format - for model browsing. Use MPS format to capture full model detail.
Minimize
 
Subject To
 R4[1,1]: 80.7 g_hvt[1,1,1] + 80.7 g_hvt[2,1,1] + 80.7 g_hvt[3,1,1]
   + 80.7 g_hvt[4,1,1] + 80.7 g_hvt[5,1,1] + 80.7 g_hvt[6,1,1]
   + 80.7 g_hvt[7,1,1] + 80.7 g_hvt[8,1,1] + 80.7 g_hvt[9,1,1]
   + 80.7 g_hvt[10,1,1] + 80.7 g_hvt[11,1,1] + 80.7 g_hvt[12,1,1]
   + 80.7 g_hvt[13,1,1] + 80.7 g_hvt[14,1,1] + 80.7 g_hvt[15,1,1]
   + 80.7 g_hvt[16,1,1] + 80.7 g_hvt[17,1,1] + 80.7 g_hvt[18,1,1]
   + 80.7 g_hvt[19,1,1] + 80.7 g_hvt[20,1,1] + 80.7 g_hvt[21,1,1]
   + 80.7 g_hvt[22,1,1] + 80.7 g_hvt[23,1,1] + 80.7 g_hvt[24,1,1]
   + 2.7 i_vct[1,1,1] + 2.7 i_vct[1,2,1] + 2.7 i_vct[1,3,1]
   + 18 i_vct[1,4,1] + 18 i_vct[1,5,1] + 0.5 i_vct[1,6,1]
   + 0.5 i_vct[1,7,1] + 0.7 i_vct[1,8,1] + 0.2 i_vct[1,9,1]
   + 0.2 i_vct[1,10,1] + 0.2 i_vct[1,11,1] + 0.3 i_vct[1,12,1]
   + 0.035 i_vct[1,13,1] + 0.035 i_vct[1,14,1] + 0.1 i_vct[1,15,1]
   + 0.05 i_vct[1,16,1] + 0.35 i_vct[1,17,1] + 0.35 i_vct[1,18,1]
   + 0.35 i_vct[1,19,1] + 0.35 i_vct[1,20,1] + 0.35 i_vct[1,21,1]
   + 0.35 i_vct[1,22,1] + 0.35 i_vct[1,23,1] + 0.35 i_vct[1,24,1]
   + 0.35 i_vct[1,25,1] + 0.35 i_vct[1,26,1] + 0.35 i_vct[1,27,1]
   + 0.35 i_vct[1,28,1] + 0.35 i_vct[1,29,1] + 0.35 i_vct[1,30,1]
   + 0.35 i_vct[1,31,1] + 0.35 i_vct[1,32,1] + 0.35 i_vct[1,33,1]
   + 0.35 i_vct[1,34,1] + 0.35 i_vct[1,35,1] + 0.35 i_vct[1,36,1]
   + 0.35 i_vct[1,37,1] + 0.35 i_vct[1,38,1] + 0.35 i_vct[1,39,1]
   + 0.35 i_vct[1,40,1] + 0.35 i_vct[1,41,1] + 0.35 i_vct[1,42,1]
   + 0.35 i_vct[1,43,1] + 0.35 i_vct[1,44,1] + 0.35 i_vct[1,45,1]
   + 0.35 i_vct[1,46,1] + 0.35 i_vct[1,47,1] + 0.35 i_vct[1,48,1]
   + 0.35 i_vct[1,49,1] + 0.35 i_vct[1,50,1] + 0.35 i_vct[1,51,1]
   + 0.35 i_vct[1,52,1] + 0.35 i_vct[1,53,1] + 0.35 i_vct[1,54,1]
   + 0.35 i_vct[1,55,1] + 0.35 i_vct[1,56,1] + 0.35 i_vct[1,57,1]
   + 0.35 i_vct[1,58,1] + 0.35 i_vct[1,59,1] + 0.35 i_vct[1,60,1]
   + 0.35 i_vct[1,61,1] + 0.35 i_vct[1,62,1] + 0.35 i_vct[1,63,1]
   + 0.35 i_vct[1,64,1] + 0.35 i_vct[1,65,1] + 0.35 i_vct[1,66,1]
   + 0.35 i_vct[1,67,1] + 11.512 i_vct[1,68,1] + 11.512 i_vct[1,69,1]
   + 32 i_vct[1,70,1] + 32 i_vct[1,71,1] + 3.2 i_vct[1,72,1]
   + 3.2 i_vct[1,73,1] + 6.67 i_vct[1,74,1] + 0.2 i_vct[1,75,1]
   + 0.2 i_vct[1,76,1] + 0.2 i_vct[1,77,1] + 0.17 i_vct[1,78,1]
   + 0.035 i_vct[1,79,1] + 0.035 i_vct[1,80,1] + 0.1 i_vct[1,81,1]
   + 0.025 i_vct[1,82,1] + 0.058 i_vct[1,83,1] + 33 i_vct[1,84,1]
   + 3.4 i_vct[1,85,1] + 0.7 i_vct[1,86,1] + 4 i_vct[1,87,1]
   + 0.43 i_vct[1,88,1] + 0.43 i_vct[1,89,1] + 0.43 i_vct[1,90,1]
   + 0.43 i_vct[1,91,1] + 0.4 i_vct[1,92,1] + 0.4 i_vct[1,93,1]
   + 0.4 i_vct[1,94,1] + 0.4 i_vct[1,95,1] + 0.45 i_vct[1,96,1]
   + 0.45 i_vct[1,97,1] + 9.5 i_vct[1,98,1] + 0.28 i_vct[1,99,1]
   + 0.28 i_vct[1,100,1] + 3.7 i_vct[1,101,1] + 3.7 i_vct[1,102,1]
   + 54 i_vct[1,103,1] + 0.028 i_vct[1,104,1] + 0.028 i_vct[1,105,1]
   + 0.35 i_vct[1,106,1] + 0.35 i_vct[1,107,1] + 3.65 i_vct[1,108,1]
   + 3.65 i_vct[1,109,1] + 3.65 i_vct[1,110,1] + 3.65 i_vct[1,111,1]
   + 3.65 i_vct[1,112,1] + 3.65 i_vct[1,113,1] + 3.65 i_vct[1,114,1]
   + 3.65 i_vct[1,115,1] + 3.65 i_vct[1,116,1] + 5.9 i_vct[1,117,1]
   + 5.9 i_vct[1,118,1] + 5.9 i_vct[1,119,1] + 5.9 i_vct[1,120,1]
   + 5.9 i_vct[1,121,1] + 5.9 i_vct[1,122,1] + 5.9 i_vct[1,123,1]
   + 5.9 i_vct[1,124,1] + 9.5 i_vct[1,125,1] + 9.5 i_vct[1,126,1]
   + 9.5 i_vct[1,127,1] + 9.5 i_vct[1,128,1] + 9.5 i_vct[1,129,1]
   + 9.5 i_vct[1,130,1] + 9.5 i_vct[1,131,1] + 9.5 i_vct[1,132,1]
   + 0.7 i_vct[1,133,1] + 0.7 i_vct[1,134,1] + 0.7 i_vct[1,135,1]
   + 0.7 i_vct[1,136,1] + 0.7 i_vct[1,137,1] + 0.7 i_vct[1,138,1]
   + 0.7 i_vct[1,139,1] + 0.7 i_vct[1,140,1] + 4.08 i_vct[1,141,1]
   + 4.08 i_vct[1,142,1] + 4.08 i_vct[1,143,1] + 4.08 i_vct[1,144,1]
   + 0.036 i_vct[1,145,1] + 0.036 i_vct[1,146,1] + 0.036 i_vct[1,147,1]
   + 0.036 i_vct[1,148,1] + 0.036 i_vct[1,149,1] + 0.036 i_vct[1,150,1]
   + 0.036 i_vct[1,151,1] + 0.036 i_vct[1,152,1] + 0.036 i_vct[1,153,1]
   + 0.036 i_vct[1,154,1] + 0.036 i_vct[1,155,1] + 0.036 i_vct[1,156,1]
   + 0.036 i_vct[1,157,1] + 0.036 i_vct[1,158,1] + 0.036 i_vct[1,159,1]
   + 0.036 i_vct[1,160,1] + 0.036 i_vct[1,161,1] + 0.036 i_vct[1,162,1]
   + 0.036 i_vct[1,163,1] + 0.036 i_vct[1,164,1] + 0.036 i_vct[1,165,1]
   + 0.036 i_vct[1,166,1] + 0.036 i_vct[1,167,1] + 0.036 i_vct[1,168,1]
   + 0.036 i_vct[1,169,1] + 0.036 i_vct[1,170,1] + 0.036 i_vct[1,171,1]
   + 0.036 i_vct[1,172,1] + 0.036 i_vct[1,173,1] + 0.036 i_vct[1,174,1]
   + 0.036 i_vct[1,175,1] + 0.036 i_vct[1,176,1] + 0.036 i_vct[1,177,1]
   + 0.036 i_vct[1,178,1] + 0.036 i_vct[1,179,1] + 0.036 i_vct[1,180,1]
   + 0.036 i_vct[1,181,1] + 0.036 i_vct[1,182,1] + 0.036 i_vct[1,183,1]
   + 0.036 i_vct[1,184,1] + 0.036 i_vct[1,185,1] + 0.036 i_vct[1,186,1]
   + 0.039 i_vct[1,187,1] + 0.039 i_vct[1,188,1] + 0.039 i_vct[1,189,1]
   + 0.039 i_vct[1,190,1] + 0.039 i_vct[1,191,1] + 0.039 i_vct[1,192,1]
   + 0.039 i_vct[1,193,1] + 0.039 i_vct[1,194,1] + 0.039 i_vct[1,195,1]
   + 0.039 i_vct[1,196,1] + 0.039 i_vct[1,197,1] + 0.039 i_vct[1,198,1]
   + 0.039 i_vct[1,199,1] + 0.039 i_vct[1,200,1] + 0.039 i_vct[1,201,1]
   + 0.039 i_vct[1,202,1] + 0.039 i_vct[1,203,1] + 0.039 i_vct[1,204,1]
   + 0.039 i_vct[1,205,1] + 0.039 i_vct[1,206,1] + 0.039 i_vct[1,207,1]
   + 0.039 i_vct[1,208,1] + 0.039 i_vct[1,209,1] + 0.039 i_vct[1,210,1]
   + 0.039 i_vct[1,211,1] + 0.039 i_vct[1,212,1] + 0.039 i_vct[1,213,1]
   + 0.039 i_vct[1,214,1] + 0.039 i_vct[1,215,1] + 0.039 i_vct[1,216,1]
   + 0.039 i_vct[1,217,1] + 0.039 i_vct[1,218,1] + 0.039 i_vct[1,219,1]
   + 0.039 i_vct[1,220,1] + 0.039 i_vct[1,221,1] + 0.039 i_vct[1,222,1]
   + 0.039 i_vct[1,223,1] + 0.039 i_vct[1,224,1] + 0.039 i_vct[1,225,1]
   + 0.039 i_vct[1,226,1] + 0.039 i_vct[1,227,1] + 0.039 i_vct[1,228,1]
   + 0.039 i_vct[1,229,1] + 0.039 i_vct[1,230,1] + 0.039 i_vct[1,231,1]
   + 0.039 i_vct[1,232,1] + 0.039 i_vct[1,233,1] + 0.039 i_vct[1,234,1]
   + 0.039 i_vct[1,235,1] + 0.039 i_vct[1,236,1] + 36 i_vct[1,237,1]
   + 36 i_vct[1,238,1] + 36 i_vct[1,239,1] + 36 i_vct[1,240,1]
   + 1.85 i_vct[1,241,1] + 1.85 i_vct[1,242,1] + 1.85 i_vct[1,243,1]
   + 1.85 i_vct[1,244,1] + 2.27 i_vct[1,245,1] + 2.27 i_vct[1,246,1]
   + 2.27 i_vct[1,247,1] + 2.27 i_vct[1,248,1] + 26.4 i_vct[1,249,1]
   + 26.4 i_vct[1,250,1] + 26.4 i_vct[1,251,1] + 26.4 i_vct[1,252,1]
   + 0.54 i_vct[1,253,1] + 0.54 i_vct[1,254,1] + 0.54 i_vct[1,255,1]
   + 0.54 i_vct[1,256,1] + 5.44 i_vct[1,257,1] + 5.44 i_vct[1,258,1]
   + 5.44 i_vct[1,259,1] + 5.44 i_vct[1,260,1] + 5.44 i_vct[1,261,1]
   + 5.44 i_vct[1,262,1] + 5.44 i_vct[1,263,1] + 5.44 i_vct[1,264,1]
   + 5.44 i_vct[1,265,1] + 5.44 i_vct[1,266,1] + 2.18 i_vct[1,267,1]
   + 2.18 i_vct[1,268,1] + 2.18 i_vct[1,269,1] + 2.18 i_vct[1,270,1]
   + 1.1 i_vct[1,271,1] + 1.1 i_vct[1,272,1] + 1.1 i_vct[1,273,1]
   + 1.1 i_vct[1,274,1] + 6.5 i_vct[1,275,1] + 6.5 i_vct[1,276,1]
   + 6.5 i_vct[1,277,1] + 6.5 i_vct[1,278,1] + 1.23 i_vct[1,279,1]
   + 1.23 i_vct[1,280,1] + 1.23 i_vct[1,281,1] + 1.23 i_vct[1,282,1]
   + 7.7 i_vct[1,283,1] + 7.7 i_vct[1,284,1] + 7.7 i_vct[1,285,1]
   + 7.7 i_vct[1,286,1] + 46 i_vct[1,287,1] + 46 i_vct[1,288,1]
   + 46 i_vct[1,289,1] + 46 i_vct[1,290,1] + 26.5 i_vct[1,291,1]
   + 26.5 i_vct[1,292,1] + 26.5 i_vct[1,293,1] + 26.5 i_vct[1,294,1]
   + 3.6 i_vct[1,295,1] + 3.6 i_vct[1,296,1] + 3.6 i_vct[1,297,1]
   + 3.6 i_vct[1,298,1] + 102.24 i_vct[1,299,1] + 54 i_vct[1,300,1]
   + 54 i_vct[1,301,1] + 54 i_vct[1,302,1] + 54 i_vct[1,303,1]
   + 54 i_vct[1,304,1] + 54 i_vct[1,305,1] + 112.9 i_vct[1,306,1]
   + 112.9 i_vct[1,307,1] + 112.9 i_vct[1,308,1] + 112.9 i_vct[1,309,1]
   + 112.9 i_vct[1,310,1] + 112.9 i_vct[1,311,1] + 112.9 i_vct[1,312,1]
   + 112.9 i_vct[1,313,1] + 112.9 i_vct[1,314,1] + 112.9 i_vct[1,315,1]
   + 112.9 i_vct[1,316,1] + 82.6 i_vct[1,317,1] + 82.6 i_vct[1,318,1]
   + 82.6 i_vct[1,319,1] + 82.6 i_vct[1,320,1] + 82.6 i_vct[1,321,1]
   + 82.6 i_vct[1,322,1] + 82.6 i_vct[1,323,1] + 82.6 i_vct[1,324,1]
   + 82.6 i_vct[1,325,1] + 82.6 i_vct[1,326,1] + 82.6 i_vct[1,327,1]
   + 82.6 i_vct[1,328,1] + 120 i_vct[1,329,1] + 120 i_vct[1,330,1]
   + 120 i_vct[1,331,1] + 120 i_vct[1,332,1] + 120 i_vct[1,333,1]
   + 120 i_vct[1,334,1] + 120 i_vct[1,335,1] + 120 i_vct[1,336,1]
   + 120 i_vct[1,337,1] + 120 i_vct[1,338,1] + 120 i_vct[1,339,1]
   + 120 i_vct[1,340,1] + 120 i_vct[1,341,1] + 120 i_vct[1,342,1]
   + 120 i_vct[1,343,1] + 120 i_vct[1,344,1] + 120 i_vct[1,345,1]
   + 120 i_vct[1,346,1] + 120 i_vct[1,347,1] + 120 i_vct[1,348,1]
   + 120 i_vct[1,349,1] + 120 i_vct[1,350,1] + 120 i_vct[1,351,1]
   + 120 i_vct[1,352,1] + 120 i_vct[1,353,1] + 300 i_vct[1,354,1]
   + 300 i_vct[1,355,1] + 300 i_vct[1,356,1] + 300 i_vct[1,357,1]
   + 300 i_vct[1,358,1] + 300 i_vct[1,359,1] + 300 i_vct[1,360,1]
   + 300 i_vct[1,361,1] + 300 i_vct[1,362,1] + 300 i_vct[1,363,1]
   + 300 i_vct[1,364,1] + 300 i_vct[1,365,1] + 300 i_vct[1,366,1]
   + 300 i_vct[1,367,1] + 300 i_vct[1,368,1] + 300 i_vct[1,369,1]
   + 300 i_vct[1,370,1] + 300 i_vct[1,371,1] + 300 i_vct[1,372,1]
   + 300 i_vct[1,373,1] + 300 i_vct[1,374,1] + 300 i_vct[1,375,1]
   + 300 i_vct[1,376,1] + 3000 i_vct[1,377,1] + 3000 i_vct[1,378,1]
   + 3000 i_vct[1,379,1] + 3000 i_vct[1,380,1] + 3000 i_vct[1,381,1]
   + 3000 i_vct[1,382,1] + 3000 i_vct[1,383,1] + 29 i_vct[1,384,1]
   + 29 i_vct[1,385,1] + 29 i_vct[1,386,1] + 29 i_vct[1,387,1]
   + 29 i_vct[1,388,1] + 29 i_vct[1,389,1] + 29 i_vct[1,390,1]
   + 29 i_vct[1,391,1] + 29 i_vct[1,392,1] + 29 i_vct[1,393,1]
   + 29 i_vct[1,394,1] + 29 i_vct[1,395,1] + 29 i_vct[1,396,1]
   + 29 i_vct[1,397,1] + 29 i_vct[1,398,1] + 29 i_vct[1,399,1]
   + 29 i_vct[1,400,1] + 29 i_vct[1,401,1] + 29 i_vct[1,402,1]
   + 29 i_vct[1,403,1] + 29 i_vct[1,404,1] + 29 i_vct[1,405,1]
   + 29 i_vct[1,406,1] + 29 i_vct[1,407,1] + 29 i_vct[1,408,1]
   + 29 i_vct[1,409,1] + 29 i_vct[1,410,1] + 29 i_vct[1,411,1]
   + 29 i_vct[1,412,1] + 29 i_vct[1,413,1] + 29 i_vct[1,414,1]
   + 29 i_vct[1,415,1] + 29 i_vct[1,416,1] + 29 i_vct[1,417,1]
   + 29 i_vct[1,418,1] + 29 i_vct[1,419,1] + 29 i_vct[1,420,1]
   + 29 i_vct[1,421,1] + 29 i_vct[1,422,1] + 29 i_vct[1,423,1]
   + 29 i_vct[1,424,1] + 29 i_vct[1,425,1] + 29 i_vct[1,426,1]
   + 29 i_vct[1,427,1] + 29 i_vct[1,428,1] + 29 i_vct[1,429,1]
   + 29 i_vct[1,430,1] + 29 i_vct[1,431,1] + 29 i_vct[1,432,1]
   + 29 i_vct[1,433,1] + 29 i_vct[1,434,1] + 29 i_vct[1,435,1]
   + 29 i_vct[1,436,1] + 29 i_vct[1,437,1] + 29 i_vct[1,438,1]
   + 29 i_vct[1,439,1] + 29 i_vct[1,440,1] + 29 i_vct[1,441,1]
   + 29 i_vct[1,442,1] + 29 i_vct[1,443,1] + 29 i_vct[1,444,1]
   + 29 i_vct[1,445,1] + 29 i_vct[1,446,1] + 29 i_vct[1,447,1]
   + 29 i_vct[1,448,1] + 29 i_vct[1,449,1] + 29 i_vct[1,450,1]
   + 29 i_vct[1,451,1] + 29 i_vct[1,452,1] + 29 i_vct[1,453,1]
   + 29 i_vct[1,454,1] + 29 i_vct[1,455,1] + 29 i_vct[1,456,1]
   + 29 i_vct[1,457,1] + 29 i_vct[1,458,1] + 29 i_vct[1,459,1]
   + 29 i_vct[1,460,1] + 29 i_vct[1,461,1] + 29 i_vct[1,462,1]
   + 29 i_vct[1,463,1] + 29 i_vct[1,464,1] + 29 i_vct[1,465,1]
   + 29 i_vct[1,466,1] + 29 i_vct[1,467,1] + 29 i_vct[1,468,1]
   + 29 i_vct[1,469,1] + 29 i_vct[1,470,1] + 29 i_vct[1,471,1]
   + 29 i_vct[1,472,1] + 29 i_vct[1,473,1] + 29 i_vct[1,474,1]
   + 29 i_vct[1,475,1] + 29 i_vct[1,476,1] + 29 i_vct[1,477,1]
   + 29 i_vct[1,478,1] + 29 i_vct[1,479,1] + 29 i_vct[1,480,1]
   + 29 i_vct[1,481,1] + 29 i_vct[1,482,1] >= 2000
 R12[1,1,1]: i_vct[1,1,1] <= 0
 R12[1,1,2]: i_vct[1,2,1] <= 0
 R12[1,1,3]: i_vct[1,3,1] <= 0
 R12[1,1,4]: i_vct[1,4,1] <= 0
 R12[1,1,5]: i_vct[1,5,1] <= 0
 R12[1,1,35]: i_vct[1,35,1] <= 0
 R12[1,1,68]: i_vct[1,68,1] <= 0
 R12[1,1,69]: i_vct[1,69,1] <= 0
 R12[1,1,70]: i_vct[1,70,1] <= 0
 R12[1,1,71]: i_vct[1,71,1] <= 0
 R12[1,1,72]: i_vct[1,72,1] <= 0
 R12[1,1,73]: i_vct[1,73,1] <= 0
 R12[1,1,74]: i_vct[1,74,1] <= 0
 R12[1,1,84]: i_vct[1,84,1] <= 0
 R12[1,1,85]: i_vct[1,85,1] <= 0
 R12[1,1,86]: i_vct[1,86,1] <= 0
 R12[1,1,87]: i_vct[1,87,1] <= 0
 R12[1,1,98]: i_vct[1,98,1] <= 0
 R12[1,1,101]: i_vct[1,101,1] <= 0
 R12[1,1,102]: i_vct[1,102,1] <= 0
 R12[1,1,103]: i_vct[1,103,1] <= 0
 R12[1,1,108]: i_vct[1,108,1] <= 0
 R12[1,1,109]: i_vct[1,109,1] <= 0
 R12[1,1,110]: i_vct[1,110,1] <= 0
 R12[1,1,111]: i_vct[1,111,1] <= 0
 R12[1,1,112]: i_vct[1,112,1] <= 0
 R12[1,1,113]: i_vct[1,113,1] <= 0
 R12[1,1,114]: i_vct[1,114,1] <= 0
 R12[1,1,115]: i_vct[1,115,1] <= 0
 R12[1,1,116]: i_vct[1,116,1] <= 0
 R12[1,1,117]: i_vct[1,117,1] <= 0
 R12[1,1,118]: i_vct[1,118,1] <= 0
 R12[1,1,119]: i_vct[1,119,1] <= 0
 R12[1,1,120]: i_vct[1,120,1] <= 0
 R12[1,1,121]: i_vct[1,121,1] <= 0
 R12[1,1,122]: i_vct[1,122,1] <= 0
 R12[1,1,123]: i_vct[1,123,1] <= 0
 R12[1,1,124]: i_vct[1,124,1] <= 0
 R12[1,1,126]: i_vct[1,126,1] <= 0
 R12[1,1,127]: i_vct[1,127,1] <= 0
 R12[1,1,128]: i_vct[1,128,1] <= 0
 R12[1,1,129]: i_vct[1,129,1] <= 0
 R12[1,1,130]: i_vct[1,130,1] <= 0
 R12[1,1,131]: i_vct[1,131,1] <= 0
 R12[1,1,132]: i_vct[1,132,1] <= 0
 R12[1,1,140]: i_vct[1,140,1] <= 0
 R12[1,1,141]: i_vct[1,141,1] <= 0
 R12[1,1,142]: i_vct[1,142,1] <= 0
 R12[1,1,143]: i_vct[1,143,1] <= 0
 R12[1,1,144]: i_vct[1,144,1] <= 0
 R12[1,1,217]: i_vct[1,217,1] <= 0
 R12[1,1,235]: i_vct[1,235,1] <= 0
 R12[1,1,236]: i_vct[1,236,1] <= 0
 R12[1,1,237]: i_vct[1,237,1] <= 0
 R12[1,1,238]: i_vct[1,238,1] <= 0
 R12[1,1,239]: i_vct[1,239,1] <= 0
 R12[1,1,240]: i_vct[1,240,1] <= 0
 R12[1,1,241]: i_vct[1,241,1] <= 0
 R12[1,1,242]: i_vct[1,242,1] <= 0
 R12[1,1,244]: i_vct[1,244,1] <= 0
 R12[1,1,246]: i_vct[1,246,1] <= 0
 R12[1,1,247]: i_vct[1,247,1] <= 0
 R12[1,1,248]: i_vct[1,248,1] <= 0
 R12[1,1,249]: i_vct[1,249,1] <= 0
 R12[1,1,250]: i_vct[1,250,1] <= 0
 R12[1,1,251]: i_vct[1,251,1] <= 0
 R12[1,1,252]: i_vct[1,252,1] <= 0
 R12[1,1,253]: i_vct[1,253,1] <= 0
 R12[1,1,254]: i_vct[1,254,1] <= 0
 R12[1,1,255]: i_vct[1,255,1] <= 0
 R12[1,1,256]: i_vct[1,256,1] <= 0
 R12[1,1,257]: i_vct[1,257,1] <= 0
 R12[1,1,258]: i_vct[1,258,1] <= 0
 R12[1,1,259]: i_vct[1,259,1] <= 0
 R12[1,1,260]: i_vct[1,260,1] <= 0
 R12[1,1,261]: i_vct[1,261,1] <= 0
 R12[1,1,262]: i_vct[1,262,1] <= 0
 R12[1,1,263]: i_vct[1,263,1] <= 0
 R12[1,1,264]: i_vct[1,264,1] <= 0
 R12[1,1,265]: i_vct[1,265,1] <= 0
 R12[1,1,266]: i_vct[1,266,1] <= 0
 R12[1,1,267]: i_vct[1,267,1] <= 0
 R12[1,1,269]: i_vct[1,269,1] <= 0
 R12[1,1,270]: i_vct[1,270,1] <= 0
 R12[1,1,272]: i_vct[1,272,1] <= 0
 R12[1,1,275]: i_vct[1,275,1] <= 0
 R12[1,1,276]: i_vct[1,276,1] <= 0
 R12[1,1,277]: i_vct[1,277,1] <= 0
 R12[1,1,278]: i_vct[1,278,1] <= 0
 R12[1,1,279]: i_vct[1,279,1] <= 0
 R12[1,1,280]: i_vct[1,280,1] <= 0
 R12[1,1,281]: i_vct[1,281,1] <= 0
 R12[1,1,284]: i_vct[1,284,1] <= 0
 R12[1,1,285]: i_vct[1,285,1] <= 0
 R12[1,1,286]: i_vct[1,286,1] <= 0
 R12[1,1,287]: i_vct[1,287,1] <= 0
 R12[1,1,288]: i_vct[1,288,1] <= 0
 R12[1,1,289]: i_vct[1,289,1] <= 0
 R12[1,1,290]: i_vct[1,290,1] <= 0
 R12[1,1,291]: i_vct[1,291,1] <= 0
 R12[1,1,292]: i_vct[1,292,1] <= 0
 R12[1,1,293]: i_vct[1,293,1] <= 0
 R12[1,1,294]: i_vct[1,294,1] <= 0
 R12[1,1,295]: i_vct[1,295,1] <= 0
 R12[1,1,296]: i_vct[1,296,1] <= 0
 R12[1,1,297]: i_vct[1,297,1] <= 0
 R12[1,1,298]: i_vct[1,298,1] <= 0
 R12[1,1,299]: i_vct[1,299,1] <= 0
 R12[1,1,300]: i_vct[1,300,1] <= 0
 R12[1,1,301]: i_vct[1,301,1] <= 0
 R12[1,1,302]: i_vct[1,302,1] <= 0
 R12[1,1,303]: i_vct[1,303,1] <= 0
 R12[1,1,304]: i_vct[1,304,1] <= 0
 R12[1,1,305]: i_vct[1,305,1] <= 0
 R12[1,1,306]: i_vct[1,306,1] <= 0
 R12[1,1,307]: i_vct[1,307,1] <= 0
 R12[1,1,308]: i_vct[1,308,1] <= 0
 R12[1,1,309]: i_vct[1,309,1] <= 0
 R12[1,1,310]: i_vct[1,310,1] <= 0
 R12[1,1,311]: i_vct[1,311,1] <= 0
 R12[1,1,312]: i_vct[1,312,1] <= 0
 R12[1,1,313]: i_vct[1,313,1] <= 0
 R12[1,1,314]: i_vct[1,314,1] <= 0
 R12[1,1,315]: i_vct[1,315,1] <= 0
 R12[1,1,316]: i_vct[1,316,1] <= 0
 R12[1,1,317]: i_vct[1,317,1] <= 0
 R12[1,1,318]: i_vct[1,318,1] <= 0
 R12[1,1,319]: i_vct[1,319,1] <= 0
 R12[1,1,320]: i_vct[1,320,1] <= 0
 R12[1,1,321]: i_vct[1,321,1] <= 0
 R12[1,1,322]: i_vct[1,322,1] <= 0
 R12[1,1,323]: i_vct[1,323,1] <= 0
 R12[1,1,324]: i_vct[1,324,1] <= 0
 R12[1,1,325]: i_vct[1,325,1] <= 0
 R12[1,1,326]: i_vct[1,326,1] <= 0
 R12[1,1,327]: i_vct[1,327,1] <= 0
 R12[1,1,328]: i_vct[1,328,1] <= 0
 R12[1,1,329]: i_vct[1,329,1] <= 0
 R12[1,1,330]: i_vct[1,330,1] <= 0
 R12[1,1,331]: i_vct[1,331,1] <= 0
 R12[1,1,332]: i_vct[1,332,1] <= 0
 R12[1,1,333]: i_vct[1,333,1] <= 0
 R12[1,1,334]: i_vct[1,334,1] <= 0
 R12[1,1,335]: i_vct[1,335,1] <= 0
 R12[1,1,336]: i_vct[1,336,1] <= 0
 R12[1,1,337]: i_vct[1,337,1] <= 0
 R12[1,1,338]: i_vct[1,338,1] <= 0
 R12[1,1,339]: i_vct[1,339,1] <= 0
 R12[1,1,340]: i_vct[1,340,1] <= 0
 R12[1,1,341]: i_vct[1,341,1] <= 0
 R12[1,1,342]: i_vct[1,342,1] <= 0
 R12[1,1,343]: i_vct[1,343,1] <= 0
 R12[1,1,344]: i_vct[1,344,1] <= 0
 R12[1,1,345]: i_vct[1,345,1] <= 0
 R12[1,1,346]: i_vct[1,346,1] <= 0
 R12[1,1,347]: i_vct[1,347,1] <= 0
 R12[1,1,348]: i_vct[1,348,1] <= 0
 R12[1,1,349]: i_vct[1,349,1] <= 0
 R12[1,1,350]: i_vct[1,350,1] <= 0
 R12[1,1,351]: i_vct[1,351,1] <= 0
 R12[1,1,352]: i_vct[1,352,1] <= 0
 R12[1,1,353]: i_vct[1,353,1] <= 0
 R12[1,1,354]: i_vct[1,354,1] <= 0
 R12[1,1,355]: i_vct[1,355,1] <= 0
 R12[1,1,356]: i_vct[1,356,1] <= 0
 R12[1,1,357]: i_vct[1,357,1] <= 0
 R12[1,1,358]: i_vct[1,358,1] <= 0
 R12[1,1,359]: i_vct[1,359,1] <= 0
 R12[1,1,360]: i_vct[1,360,1] <= 0
 R12[1,1,361]: i_vct[1,361,1] <= 0
 R12[1,1,362]: i_vct[1,362,1] <= 0
 R12[1,1,363]: i_vct[1,363,1] <= 0
 R12[1,1,364]: i_vct[1,364,1] <= 0
 R12[1,1,365]: i_vct[1,365,1] <= 0
 R12[1,1,366]: i_vct[1,366,1] <= 0
 R12[1,1,367]: i_vct[1,367,1] <= 0
 R12[1,1,368]: i_vct[1,368,1] <= 0
 R12[1,1,369]: i_vct[1,369,1] <= 0
 R12[1,1,370]: i_vct[1,370,1] <= 0
 R12[1,1,371]: i_vct[1,371,1] <= 0
 R12[1,1,372]: i_vct[1,372,1] <= 0
 R12[1,1,373]: i_vct[1,373,1] <= 0
 R12[1,1,374]: i_vct[1,374,1] <= 0
 R12[1,1,375]: i_vct[1,375,1] <= 0
 R12[1,1,376]: i_vct[1,376,1] <= 0
 R12[1,1,377]: i_vct[1,377,1] <= 0
 R12[1,1,378]: i_vct[1,378,1] <= 0
 R12[1,1,379]: i_vct[1,379,1] <= 0
 R12[1,1,380]: i_vct[1,380,1] <= 0
 R12[1,1,381]: i_vct[1,381,1] <= 0
 R12[1,1,382]: i_vct[1,382,1] <= 0
 R12[1,1,383]: i_vct[1,383,1] <= 0
 R12[1,1,384]: i_vct[1,384,1] <= 0
 R12[1,1,385]: i_vct[1,385,1] <= 0
 R12[1,1,386]: i_vct[1,386,1] <= 0
 R12[1,1,387]: i_vct[1,387,1] <= 0
 R12[1,1,388]: i_vct[1,388,1] <= 0
 R12[1,1,389]: i_vct[1,389,1] <= 0
 R12[1,1,390]: i_vct[1,390,1] <= 0
 R12[1,1,391]: i_vct[1,391,1] <= 0
 R12[1,1,392]: i_vct[1,392,1] <= 0
 R12[1,1,393]: i_vct[1,393,1] <= 0
 R12[1,1,394]: i_vct[1,394,1] <= 0
 R12[1,1,395]: i_vct[1,395,1] <= 0
 R12[1,1,396]: i_vct[1,396,1] <= 0
 R12[1,1,397]: i_vct[1,397,1] <= 0
 R12[1,1,398]: i_vct[1,398,1] <= 0
 R12[1,1,399]: i_vct[1,399,1] <= 0
 R12[1,1,400]: i_vct[1,400,1] <= 0
 R12[1,1,401]: i_vct[1,401,1] <= 0
 R12[1,1,402]: i_vct[1,402,1] <= 0
 R12[1,1,403]: i_vct[1,403,1] <= 0
 R12[1,1,404]: i_vct[1,404,1] <= 0
 R12[1,1,405]: i_vct[1,405,1] <= 0
 R12[1,1,406]: i_vct[1,406,1] <= 0
 R12[1,1,407]: i_vct[1,407,1] <= 0
 R12[1,1,408]: i_vct[1,408,1] <= 0
 R12[1,1,409]: i_vct[1,409,1] <= 0
 R12[1,1,410]: i_vct[1,410,1] <= 0
 R12[1,1,411]: i_vct[1,411,1] <= 0
 R12[1,1,412]: i_vct[1,412,1] <= 0
 R12[1,1,413]: i_vct[1,413,1] <= 0
 R12[1,1,414]: i_vct[1,414,1] <= 0
 R12[1,1,415]: i_vct[1,415,1] <= 0
 R12[1,1,416]: i_vct[1,416,1] <= 0
 R12[1,1,417]: i_vct[1,417,1] <= 0
 R12[1,1,418]: i_vct[1,418,1] <= 0
 R12[1,1,419]: i_vct[1,419,1] <= 0
 R12[1,1,420]: i_vct[1,420,1] <= 0
 R12[1,1,421]: i_vct[1,421,1] <= 0
 R12[1,1,422]: i_vct[1,422,1] <= 0
 R12[1,1,423]: i_vct[1,423,1] <= 0
 R12[1,1,424]: i_vct[1,424,1] <= 0
 R12[1,1,425]: i_vct[1,425,1] <= 0
 R12[1,1,426]: i_vct[1,426,1] <= 0
 R12[1,1,427]: i_vct[1,427,1] <= 0
 R12[1,1,428]: i_vct[1,428,1] <= 0
 R12[1,1,429]: i_vct[1,429,1] <= 0
 R12[1,1,430]: i_vct[1,430,1] <= 0
 R12[1,1,431]: i_vct[1,431,1] <= 0
 R12[1,1,432]: i_vct[1,432,1] <= 0
 R12[1,1,433]: i_vct[1,433,1] <= 0
 R12[1,1,434]: i_vct[1,434,1] <= 0
 R12[1,1,435]: i_vct[1,435,1] <= 0
 R12[1,1,436]: i_vct[1,436,1] <= 0
 R12[1,1,437]: i_vct[1,437,1] <= 0
 R12[1,1,438]: i_vct[1,438,1] <= 0
 R12[1,1,439]: i_vct[1,439,1] <= 0
 R12[1,1,440]: i_vct[1,440,1] <= 0
 R12[1,1,441]: i_vct[1,441,1] <= 0
 R12[1,1,442]: i_vct[1,442,1] <= 0
 R12[1,1,443]: i_vct[1,443,1] <= 0
 R12[1,1,444]: i_vct[1,444,1] <= 0
 R12[1,1,445]: i_vct[1,445,1] <= 0
 R12[1,1,446]: i_vct[1,446,1] <= 0
 R12[1,1,447]: i_vct[1,447,1] <= 0
 R12[1,1,448]: i_vct[1,448,1] <= 0
 R12[1,1,449]: i_vct[1,449,1] <= 0
 R12[1,1,450]: i_vct[1,450,1] <= 0
 R12[1,1,451]: i_vct[1,451,1] <= 0
 R12[1,1,452]: i_vct[1,452,1] <= 0
 R12[1,1,453]: i_vct[1,453,1] <= 0
 R12[1,1,454]: i_vct[1,454,1] <= 0
 R12[1,1,455]: i_vct[1,455,1] <= 0
 R12[1,1,456]: i_vct[1,456,1] <= 0
 R12[1,1,457]: i_vct[1,457,1] <= 0
 R12[1,1,458]: i_vct[1,458,1] <= 0
 R12[1,1,459]: i_vct[1,459,1] <= 0
 R12[1,1,460]: i_vct[1,460,1] <= 0
 R12[1,1,461]: i_vct[1,461,1] <= 0
 R12[1,1,462]: i_vct[1,462,1] <= 0
 R12[1,1,463]: i_vct[1,463,1] <= 0
 R12[1,1,464]: i_vct[1,464,1] <= 0
 R12[1,1,465]: i_vct[1,465,1] <= 0
 R12[1,1,466]: i_vct[1,466,1] <= 0
 R12[1,1,467]: i_vct[1,467,1] <= 0
 R12[1,1,468]: i_vct[1,468,1] <= 0
 R12[1,1,469]: i_vct[1,469,1] <= 0
 R12[1,1,470]: i_vct[1,470,1] <= 0
 R12[1,1,471]: i_vct[1,471,1] <= 0
 R12[1,1,472]: i_vct[1,472,1] <= 0
 R12[1,1,473]: i_vct[1,473,1] <= 0
 R12[1,1,474]: i_vct[1,474,1] <= 0
 R12[1,1,475]: i_vct[1,475,1] <= 0
 R12[1,1,476]: i_vct[1,476,1] <= 0
 R12[1,1,477]: i_vct[1,477,1] <= 0
 R12[1,1,478]: i_vct[1,478,1] <= 0
 R12[1,1,479]: i_vct[1,479,1] <= 0
 R12[1,1,480]: i_vct[1,480,1] <= 0
 R12[1,1,481]: i_vct[1,481,1] <= 0
 R12[1,1,482]: i_vct[1,482,1] <= 0
Bounds
Binaries
 g_hvt[1,1,1] g_hvt[2,1,1] g_hvt[3,1,1] g_hvt[4,1,1] g_hvt[5,1,1]
 g_hvt[6,1,1] g_hvt[7,1,1] g_hvt[8,1,1] g_hvt[9,1,1] g_hvt[10,1,1]
 g_hvt[11,1,1] g_hvt[12,1,1] g_hvt[13,1,1] g_hvt[14,1,1] g_hvt[15,1,1]
 g_hvt[16,1,1] g_hvt[17,1,1] g_hvt[18,1,1] g_hvt[19,1,1] g_hvt[20,1,1]
 g_hvt[21,1,1] g_hvt[22,1,1] g_hvt[23,1,1] g_hvt[24,1,1] i_vct[1,1,1]
 i_vct[1,2,1] i_vct[1,3,1] i_vct[1,4,1] i_vct[1,5,1] i_vct[1,6,1]
 i_vct[1,7,1] i_vct[1,8,1] i_vct[1,9,1] i_vct[1,10,1] i_vct[1,11,1]
 i_vct[1,12,1] i_vct[1,13,1] i_vct[1,14,1] i_vct[1,15,1] i_vct[1,16,1]
 i_vct[1,17,1] i_vct[1,18,1] i_vct[1,19,1] i_vct[1,20,1] i_vct[1,21,1]
 i_vct[1,22,1] i_vct[1,23,1] i_vct[1,24,1] i_vct[1,25,1] i_vct[1,26,1]
 i_vct[1,27,1] i_vct[1,28,1] i_vct[1,29,1] i_vct[1,30,1] i_vct[1,31,1]
 i_vct[1,32,1] i_vct[1,33,1] i_vct[1,34,1] i_vct[1,35,1] i_vct[1,36,1]
 i_vct[1,37,1] i_vct[1,38,1] i_vct[1,39,1] i_vct[1,40,1] i_vct[1,41,1]
 i_vct[1,42,1] i_vct[1,43,1] i_vct[1,44,1] i_vct[1,45,1] i_vct[1,46,1]
 i_vct[1,47,1] i_vct[1,48,1] i_vct[1,49,1] i_vct[1,50,1] i_vct[1,51,1]
 i_vct[1,52,1] i_vct[1,53,1] i_vct[1,54,1] i_vct[1,55,1] i_vct[1,56,1]
 i_vct[1,57,1] i_vct[1,58,1] i_vct[1,59,1] i_vct[1,60,1] i_vct[1,61,1]
 i_vct[1,62,1] i_vct[1,63,1] i_vct[1,64,1] i_vct[1,65,1] i_vct[1,66,1]
 i_vct[1,67,1] i_vct[1,68,1] i_vct[1,69,1] i_vct[1,70,1] i_vct[1,71,1]
 i_vct[1,72,1] i_vct[1,73,1] i_vct[1,74,1] i_vct[1,75,1] i_vct[1,76,1]
 i_vct[1,77,1] i_vct[1,78,1] i_vct[1,79,1] i_vct[1,80,1] i_vct[1,81,1]
 i_vct[1,82,1] i_vct[1,83,1] i_vct[1,84,1] i_vct[1,85,1] i_vct[1,86,1]
 i_vct[1,87,1] i_vct[1,88,1] i_vct[1,89,1] i_vct[1,90,1] i_vct[1,91,1]
 i_vct[1,92,1] i_vct[1,93,1] i_vct[1,94,1] i_vct[1,95,1] i_vct[1,96,1]
 i_vct[1,97,1] i_vct[1,98,1] i_vct[1,99,1] i_vct[1,100,1] i_vct[1,101,1]
 i_vct[1,102,1] i_vct[1,103,1] i_vct[1,104,1] i_vct[1,105,1] i_vct[1,106,1]
 i_vct[1,107,1] i_vct[1,108,1] i_vct[1,109,1] i_vct[1,110,1] i_vct[1,111,1]
 i_vct[1,112,1] i_vct[1,113,1] i_vct[1,114,1] i_vct[1,115,1] i_vct[1,116,1]
 i_vct[1,117,1] i_vct[1,118,1] i_vct[1,119,1] i_vct[1,120,1] i_vct[1,121,1]
 i_vct[1,122,1] i_vct[1,123,1] i_vct[1,124,1] i_vct[1,125,1] i_vct[1,126,1]
 i_vct[1,127,1] i_vct[1,128,1] i_vct[1,129,1] i_vct[1,130,1] i_vct[1,131,1]
 i_vct[1,132,1] i_vct[1,133,1] i_vct[1,134,1] i_vct[1,135,1] i_vct[1,136,1]
 i_vct[1,137,1] i_vct[1,138,1] i_vct[1,139,1] i_vct[1,140,1] i_vct[1,141,1]
 i_vct[1,142,1] i_vct[1,143,1] i_vct[1,144,1] i_vct[1,145,1] i_vct[1,146,1]
 i_vct[1,147,1] i_vct[1,148,1] i_vct[1,149,1] i_vct[1,150,1] i_vct[1,151,1]
 i_vct[1,152,1] i_vct[1,153,1] i_vct[1,154,1] i_vct[1,155,1] i_vct[1,156,1]
 i_vct[1,157,1] i_vct[1,158,1] i_vct[1,159,1] i_vct[1,160,1] i_vct[1,161,1]
 i_vct[1,162,1] i_vct[1,163,1] i_vct[1,164,1] i_vct[1,165,1] i_vct[1,166,1]
 i_vct[1,167,1] i_vct[1,168,1] i_vct[1,169,1] i_vct[1,170,1] i_vct[1,171,1]
 i_vct[1,172,1] i_vct[1,173,1] i_vct[1,174,1] i_vct[1,175,1] i_vct[1,176,1]
 i_vct[1,177,1] i_vct[1,178,1] i_vct[1,179,1] i_vct[1,180,1] i_vct[1,181,1]
 i_vct[1,182,1] i_vct[1,183,1] i_vct[1,184,1] i_vct[1,185,1] i_vct[1,186,1]
 i_vct[1,187,1] i_vct[1,188,1] i_vct[1,189,1] i_vct[1,190,1] i_vct[1,191,1]
 i_vct[1,192,1] i_vct[1,193,1] i_vct[1,194,1] i_vct[1,195,1] i_vct[1,196,1]
 i_vct[1,197,1] i_vct[1,198,1] i_vct[1,199,1] i_vct[1,200,1] i_vct[1,201,1]
 i_vct[1,202,1] i_vct[1,203,1] i_vct[1,204,1] i_vct[1,205,1] i_vct[1,206,1]
 i_vct[1,207,1] i_vct[1,208,1] i_vct[1,209,1] i_vct[1,210,1] i_vct[1,211,1]
 i_vct[1,212,1] i_vct[1,213,1] i_vct[1,214,1] i_vct[1,215,1] i_vct[1,216,1]
 i_vct[1,217,1] i_vct[1,218,1] i_vct[1,219,1] i_vct[1,220,1] i_vct[1,221,1]
 i_vct[1,222,1] i_vct[1,223,1] i_vct[1,224,1] i_vct[1,225,1] i_vct[1,226,1]
 i_vct[1,227,1] i_vct[1,228,1] i_vct[1,229,1] i_vct[1,230,1] i_vct[1,231,1]
 i_vct[1,232,1] i_vct[1,233,1] i_vct[1,234,1] i_vct[1,235,1] i_vct[1,236,1]
 i_vct[1,237,1] i_vct[1,238,1] i_vct[1,239,1] i_vct[1,240,1] i_vct[1,241,1]
 i_vct[1,242,1] i_vct[1,243,1] i_vct[1,244,1] i_vct[1,245,1] i_vct[1,246,1]
 i_vct[1,247,1] i_vct[1,248,1] i_vct[1,249,1] i_vct[1,250,1] i_vct[1,251,1]
 i_vct[1,252,1] i_vct[1,253,1] i_vct[1,254,1] i_vct[1,255,1] i_vct[1,256,1]
 i_vct[1,257,1] i_vct[1,258,1] i_vct[1,259,1] i_vct[1,260,1] i_vct[1,261,1]
 i_vct[1,262,1] i_vct[1,263,1] i_vct[1,264,1] i_vct[1,265,1] i_vct[1,266,1]
 i_vct[1,267,1] i_vct[1,268,1] i_vct[1,269,1] i_vct[1,270,1] i_vct[1,271,1]
 i_vct[1,272,1] i_vct[1,273,1] i_vct[1,274,1] i_vct[1,275,1] i_vct[1,276,1]
 i_vct[1,277,1] i_vct[1,278,1] i_vct[1,279,1] i_vct[1,280,1] i_vct[1,281,1]
 i_vct[1,282,1] i_vct[1,283,1] i_vct[1,284,1] i_vct[1,285,1] i_vct[1,286,1]
 i_vct[1,287,1] i_vct[1,288,1] i_vct[1,289,1] i_vct[1,290,1] i_vct[1,291,1]
 i_vct[1,292,1] i_vct[1,293,1] i_vct[1,294,1] i_vct[1,295,1] i_vct[1,296,1]
 i_vct[1,297,1] i_vct[1,298,1] i_vct[1,299,1] i_vct[1,300,1] i_vct[1,301,1]
 i_vct[1,302,1] i_vct[1,303,1] i_vct[1,304,1] i_vct[1,305,1] i_vct[1,306,1]
 i_vct[1,307,1] i_vct[1,308,1] i_vct[1,309,1] i_vct[1,310,1] i_vct[1,311,1]
 i_vct[1,312,1] i_vct[1,313,1] i_vct[1,314,1] i_vct[1,315,1] i_vct[1,316,1]
 i_vct[1,317,1] i_vct[1,318,1] i_vct[1,319,1] i_vct[1,320,1] i_vct[1,321,1]
 i_vct[1,322,1] i_vct[1,323,1] i_vct[1,324,1] i_vct[1,325,1] i_vct[1,326,1]
 i_vct[1,327,1] i_vct[1,328,1] i_vct[1,329,1] i_vct[1,330,1] i_vct[1,331,1]
 i_vct[1,332,1] i_vct[1,333,1] i_vct[1,334,1] i_vct[1,335,1] i_vct[1,336,1]
 i_vct[1,337,1] i_vct[1,338,1] i_vct[1,339,1] i_vct[1,340,1] i_vct[1,341,1]
 i_vct[1,342,1] i_vct[1,343,1] i_vct[1,344,1] i_vct[1,345,1] i_vct[1,346,1]
 i_vct[1,347,1] i_vct[1,348,1] i_vct[1,349,1] i_vct[1,350,1] i_vct[1,351,1]
 i_vct[1,352,1] i_vct[1,353,1] i_vct[1,354,1] i_vct[1,355,1] i_vct[1,356,1]
 i_vct[1,357,1] i_vct[1,358,1] i_vct[1,359,1] i_vct[1,360,1] i_vct[1,361,1]
 i_vct[1,362,1] i_vct[1,363,1] i_vct[1,364,1] i_vct[1,365,1] i_vct[1,366,1]
 i_vct[1,367,1] i_vct[1,368,1] i_vct[1,369,1] i_vct[1,370,1] i_vct[1,371,1]
 i_vct[1,372,1] i_vct[1,373,1] i_vct[1,374,1] i_vct[1,375,1] i_vct[1,376,1]
 i_vct[1,377,1] i_vct[1,378,1] i_vct[1,379,1] i_vct[1,380,1] i_vct[1,381,1]
 i_vct[1,382,1] i_vct[1,383,1] i_vct[1,384,1] i_vct[1,385,1] i_vct[1,386,1]
 i_vct[1,387,1] i_vct[1,388,1] i_vct[1,389,1] i_vct[1,390,1] i_vct[1,391,1]
 i_vct[1,392,1] i_vct[1,393,1] i_vct[1,394,1] i_vct[1,395,1] i_vct[1,396,1]
 i_vct[1,397,1] i_vct[1,398,1] i_vct[1,399,1] i_vct[1,400,1] i_vct[1,401,1]
 i_vct[1,402,1] i_vct[1,403,1] i_vct[1,404,1] i_vct[1,405,1] i_vct[1,406,1]
 i_vct[1,407,1] i_vct[1,408,1] i_vct[1,409,1] i_vct[1,410,1] i_vct[1,411,1]
 i_vct[1,412,1] i_vct[1,413,1] i_vct[1,414,1] i_vct[1,415,1] i_vct[1,416,1]
 i_vct[1,417,1] i_vct[1,418,1] i_vct[1,419,1] i_vct[1,420,1] i_vct[1,421,1]
 i_vct[1,422,1] i_vct[1,423,1] i_vct[1,424,1] i_vct[1,425,1] i_vct[1,426,1]
 i_vct[1,427,1] i_vct[1,428,1] i_vct[1,429,1] i_vct[1,430,1] i_vct[1,431,1]
 i_vct[1,432,1] i_vct[1,433,1] i_vct[1,434,1] i_vct[1,435,1] i_vct[1,436,1]
 i_vct[1,437,1] i_vct[1,438,1] i_vct[1,439,1] i_vct[1,440,1] i_vct[1,441,1]
 i_vct[1,442,1] i_vct[1,443,1] i_vct[1,444,1] i_vct[1,445,1] i_vct[1,446,1]
 i_vct[1,447,1] i_vct[1,448,1] i_vct[1,449,1] i_vct[1,450,1] i_vct[1,451,1]
 i_vct[1,452,1] i_vct[1,453,1] i_vct[1,454,1] i_vct[1,455,1] i_vct[1,456,1]
 i_vct[1,457,1] i_vct[1,458,1] i_vct[1,459,1] i_vct[1,460,1] i_vct[1,461,1]
 i_vct[1,462,1] i_vct[1,463,1] i_vct[1,464,1] i_vct[1,465,1] i_vct[1,466,1]
 i_vct[1,467,1] i_vct[1,468,1] i_vct[1,469,1] i_vct[1,470,1] i_vct[1,471,1]
 i_vct[1,472,1] i_vct[1,473,1] i_vct[1,474,1] i_vct[1,475,1] i_vct[1,476,1]
 i_vct[1,477,1] i_vct[1,478,1] i_vct[1,479,1] i_vct[1,480,1] i_vct[1,481,1]
 i_vct[1,482,1]
End
